n = 100;
d = [29, 78, 9, 36, 49, 11, 62, 56, 44, 21, 43, 90, 75, 11, 69, 28, 46, 46, 72, 30, 91, 85, 39, 74, 90, 10, 12, 89, 45, 33, 81, 95, 71, 99, 9, 52, 85, 98, 22, 43, 14, 6, 22, 61, 26, 69, 21, 49, 72, 53, 84, 2, 52, 95, 48, 72, 47, 65, 6, 25, 46, 37, 61, 13, 32, 21, 32, 89, 30, 55, 31, 86, 46, 74, 32, 88, 19, 48, 36, 79, 76, 69, 76, 51, 85, 11, 40, 89, 26, 74, 85, 13, 61, 7, 64, 76, 47, 52, 90, 45];
m = 90;
pre = [1, 2, 3, 4, 5, 6, 7, 8, 9, 11, 12, 13, 14, 15, 16, 17, 18, 19, 21, 22, 23, 24, 25, 26, 27, 28, 29, 31, 32, 33, 34, 35, 36, 37, 38, 39, 41, 42, 43, 44, 45, 46, 47, 48, 49, 51, 52, 53, 54, 55, 56, 57, 58, 59, 61, 62, 63, 64, 65, 66, 67, 68, 69, 71, 72, 73, 74, 75, 76, 77, 78, 79, 81, 82, 83, 84, 85, 86, 87, 88, 89, 91, 92, 93, 94, 95, 96, 97, 98, 99];
post = [2, 3, 4, 5, 6, 7, 8, 9, 10, 12, 13, 14, 15, 16, 17, 18, 19, 20, 22, 23, 24, 25, 26, 27, 28, 29, 30, 32, 33, 34, 35, 36, 37, 38, 39, 40, 42, 43, 44, 45, 46, 47, 48, 49, 50, 52, 53, 54, 55, 56, 57, 58, 59, 60, 62, 63, 64, 65, 66, 67, 68, 69, 70, 72, 73, 74, 75, 76, 77, 78, 79, 80, 82, 83, 84, 85, 86, 87, 88, 89, 90, 92, 93, 94, 95, 96, 97, 98, 99, 100];
o = 10;
disj = [{1,11,22,33,42,57,62,72,81,92}, {2,16,21,31,43,52,61,73,82,91}, {3,12,24,32,41,51,64,71,85,93}, {4,15,23,38,45,54,63,80,83,98}, {5,13,30,34,46,59,70,75,89,99}, {6,18,26,40,44,53,66,74,84,97}, {7,17,28,35,50,58,65,76,87,94}, {8,19,27,37,48,60,69,79,88,100}, {9,20,25,36,47,55,68,77,90,95}, {10,14,29,39,49,56,67,78,86,96}];